4 
5  18 34 49 
6  04 19 34 49 
7  04 19 34 49 
8  04 19 34 49 
9  04 19 34 49 
10  04 19 34 49 
11  04 19 34 49 
12  04 19 34 49 
13  04 19 36 51 
14  06 21 36 51 
15  06 21 36 51 
16  06 21 36 51 
17  06 21 36 51 
18  06 21 36 51 
19  06 21 34 49 
20  04 19 34 49 
21  04 19 34 49 
22  04 19 36 54 
23  22 
0  
1 
